<number of tasks>
50

<cycle time>
1000

<order strength>
0.203


<task times>
1 83
2 183
3 101
4 71
5 78
6 82
7 207
8 60
9 96
10 61
11 32
12 239
13 173
14 154
15 75
16 146
17 108
18 143
19 34
20 139
21 87
22 180
23 28
24 179
25 56
26 120
27 262
28 97
29 176
30 78
31 73
32 93
33 141
34 207
35 172
36 41
37 196
38 114
39 197
40 113
41 234
42 239
43 137
44 203
45 22
46 112
47 200
48 213
49 310
50 242

<precedence relations>
1,5
1,6
1,8
2,7
2,16
3,50
4,8
4,25
4,37
5,9
6,10
7,11
8,12
8,13
8,14
8,15
8,16
8,48
9,17
10,20
11,18
12,19
13,21
15,49
16,32
17,22
18,23
19,26
20,24
20,25
20,27
20,28
22,33
23,30
24,29
24,34
24,37
25,31
25,35
27,32
27,36
28,34
29,39
30,41
31,40
32,38
32,43
33,42
33,43
38,44
39,46
40,46
41,45
42,47
42,48
42,49
43,50

<end>
